(set-info :smt-lib-version 2.6)
(set-logic QF_LRA)
(set-info :source |
Fully parameterized specification and verification of a synchronizer   
circuit modeling metastability at various levels of refinement.     
A paper describing this specification, to be published in Designing     
Correct Circuits (DCC), 2006, is available from the authors.            

Geoffrey Brown, Indiana University <geobrown@cs.indiana.edu>
Lee Pike, Galois Connections, Inc. <leepike@galois.com>

Translated into CVC format by Leonardo de Moura.

This benchmark was automatically translated into SMT-LIB format from
CVC format using CVC Lite

|)
(set-info :category "industrial")
(set-info :status sat)
(declare-fun x_0 () Bool)
(declare-fun x_1 () Bool)
(declare-fun x_2 () Real)
(declare-fun x_3 () Real)
(declare-fun x_4 () Bool)
(declare-fun x_5 () Bool)
(declare-fun x_6 () Real)
(declare-fun x_7 () Real)
(declare-fun x_8 () Bool)
(declare-fun x_9 () Bool)
(declare-fun x_10 () Real)
(declare-fun x_11 () Real)
(declare-fun x_12 () Bool)
(declare-fun x_13 () Bool)
(declare-fun x_14 () Real)
(declare-fun x_15 () Real)
(declare-fun x_16 () Bool)
(declare-fun x_17 () Bool)
(declare-fun x_18 () Real)
(declare-fun x_19 () Real)
(declare-fun x_20 () Bool)
(declare-fun x_21 () Bool)
(declare-fun x_22 () Real)
(declare-fun x_23 () Real)
(declare-fun x_24 () Bool)
(declare-fun x_25 () Bool)
(declare-fun x_26 () Real)
(declare-fun x_27 () Real)
(declare-fun x_28 () Bool)
(declare-fun x_29 () Bool)
(declare-fun x_30 () Real)
(declare-fun x_31 () Real)
(declare-fun x_32 () Bool)
(declare-fun x_33 () Bool)
(declare-fun x_34 () Real)
(declare-fun x_35 () Real)
(declare-fun x_36 () Bool)
(declare-fun x_37 () Bool)
(declare-fun x_38 () Bool)
(declare-fun x_39 () Bool)
(declare-fun x_40 () Real)
(declare-fun x_41 () Real)
(declare-fun x_42 () Real)
(declare-fun x_43 () Real)
(declare-fun x_44 () Bool)
(declare-fun x_45 () Bool)
(declare-fun x_46 () Bool)
(declare-fun x_47 () Bool)
(declare-fun x_48 () Real)
(declare-fun x_49 () Real)
(declare-fun x_50 () Real)
(declare-fun x_51 () Real)
(declare-fun x_52 () Bool)
(declare-fun x_53 () Bool)
(declare-fun x_54 () Bool)
(declare-fun x_55 () Bool)
(declare-fun x_56 () Real)
(declare-fun x_57 () Real)
(declare-fun x_58 () Real)
(declare-fun x_59 () Real)
(declare-fun x_60 () Bool)
(declare-fun x_61 () Bool)
(declare-fun x_62 () Bool)
(declare-fun x_63 () Bool)
(declare-fun x_64 () Real)
(declare-fun x_65 () Real)
(declare-fun x_66 () Real)
(declare-fun x_67 () Real)
(declare-fun x_68 () Bool)
(declare-fun x_69 () Bool)
(declare-fun x_70 () Bool)
(declare-fun x_71 () Bool)
(declare-fun x_72 () Real)
(declare-fun x_73 () Real)
(declare-fun x_74 () Real)
(declare-fun x_75 () Real)
(declare-fun x_76 () Bool)
(declare-fun x_77 () Bool)
(declare-fun x_78 () Bool)
(declare-fun x_79 () Bool)
(declare-fun x_80 () Real)
(declare-fun x_81 () Real)
(declare-fun x_82 () Real)
(declare-fun x_83 () Real)
(declare-fun x_84 () Bool)
(declare-fun x_85 () Bool)
(declare-fun x_86 () Bool)
(declare-fun x_87 () Bool)
(declare-fun x_88 () Real)
(declare-fun x_89 () Real)
(declare-fun x_90 () Real)
(declare-fun x_91 () Real)
(declare-fun x_92 () Bool)
(declare-fun x_93 () Bool)
(declare-fun x_94 () Bool)
(declare-fun x_95 () Bool)
(declare-fun x_96 () Real)
(declare-fun x_97 () Real)
(declare-fun x_98 () Real)
(declare-fun x_99 () Real)
(declare-fun x_100 () Bool)
(declare-fun x_101 () Bool)
(declare-fun x_102 () Bool)
(declare-fun x_103 () Bool)
(declare-fun x_104 () Real)
(declare-fun x_105 () Real)
(declare-fun x_106 () Real)
(declare-fun x_107 () Real)
(declare-fun x_108 () Bool)
(declare-fun x_109 () Bool)
(declare-fun x_110 () Bool)
(declare-fun x_111 () Bool)
(declare-fun x_112 () Bool)
(declare-fun x_113 () Bool)
(declare-fun x_114 () Real)
(declare-fun x_115 () Real)
(declare-fun x_116 () Real)
(declare-fun x_117 () Real)
(declare-fun x_118 () Real)
(declare-fun x_119 () Real)
(declare-fun x_120 () Real)
(declare-fun x_121 () Real)
(declare-fun x_122 () Real)
(declare-fun x_123 () Real)
(declare-fun x_124 () Real)
(declare-fun x_125 () Real)
(declare-fun x_126 () Real)
(declare-fun x_127 () Real)
(declare-fun x_128 () Real)
(declare-fun x_129 () Real)
(declare-fun x_130 () Real)
(declare-fun x_131 () Real)
(declare-fun x_132 () Real)
(declare-fun x_133 () Real)
(declare-fun x_134 () Real)
(declare-fun x_135 () Real)
(declare-fun x_136 () Real)
(declare-fun x_137 () Real)
(declare-fun x_138 () Real)
(declare-fun x_139 () Real)
(declare-fun x_140 () Real)
(declare-fun x_141 () Real)
(declare-fun x_142 () Real)
(declare-fun x_143 () Real)
(declare-fun x_144 () Real)
(declare-fun x_145 () Real)
(declare-fun x_146 () Real)
(declare-fun x_147 () Real)
(declare-fun x_148 () Real)
(declare-fun x_149 () Real)
(declare-fun x_150 () Real)
(declare-fun x_151 () Real)
(declare-fun x_152 () Real)
(declare-fun x_153 () Real)
(declare-fun x_154 () Real)
(declare-fun x_155 () Real)
(declare-fun x_156 () Real)
(declare-fun x_157 () Real)
(declare-fun x_158 () Real)
(declare-fun x_159 () Real)
(declare-fun x_160 () Real)
(declare-fun x_161 () Real)
(declare-fun x_162 () Real)
(declare-fun x_163 () Real)
(declare-fun x_164 () Real)
(declare-fun x_165 () Real)
(declare-fun x_166 () Real)
(declare-fun x_167 () Real)
(declare-fun x_168 () Real)
(declare-fun x_169 () Real)
(declare-fun x_170 () Real)
(declare-fun x_171 () Real)
(declare-fun x_172 () Real)
(declare-fun x_173 () Real)
(declare-fun x_174 () Real)
(declare-fun x_175 () Real)
(declare-fun x_176 () Real)
(declare-fun x_177 () Real)
(declare-fun x_178 () Real)
(assert (let ((?v_119 (= x_49 x_41)) (?v_120 (= x_42 x_50)) (?v_121 (= x_51 x_43)) (?v_117 (= x_40 x_48))) (let ((?v_122 (not ?v_117)) (?v_125 (= x_118 x_119)) (?v_113 (= x_44 x_36)) (?v_114 (= x_7 x_3)) (?v_118 (ite (<= x_42 x_40) x_42 x_40)) (?v_112 (ite (<= x_40 x_42) x_40 x_42)) (?v_105 (= x_57 x_49)) (?v_106 (= x_50 x_58)) (?v_107 (= x_59 x_51)) (?v_103 (= x_48 x_56))) (let ((?v_108 (not ?v_103)) (?v_111 (= x_129 x_118)) (?v_99 (= x_52 x_44)) (?v_100 (= x_11 x_7)) (?v_104 (ite (<= x_50 x_48) x_50 x_48)) (?v_98 (ite (<= x_48 x_50) x_48 x_50)) (?v_91 (= x_65 x_57)) (?v_92 (= x_58 x_66)) (?v_93 (= x_67 x_59)) (?v_89 (= x_56 x_64))) (let ((?v_94 (not ?v_89)) (?v_97 (= x_135 x_129)) (?v_85 (= x_60 x_52)) (?v_86 (= x_15 x_11)) (?v_90 (ite (<= x_58 x_56) x_58 x_56)) (?v_84 (ite (<= x_56 x_58) x_56 x_58)) (?v_77 (= x_73 x_65)) (?v_78 (= x_66 x_74)) (?v_79 (= x_75 x_67)) (?v_75 (= x_64 x_72))) (let ((?v_80 (not ?v_75)) (?v_83 (= x_141 x_135)) (?v_71 (= x_68 x_60)) (?v_72 (= x_19 x_15)) (?v_76 (ite (<= x_66 x_64) x_66 x_64)) (?v_70 (ite (<= x_64 x_66) x_64 x_66)) (?v_63 (= x_81 x_73)) (?v_64 (= x_74 x_82)) (?v_65 (= x_83 x_75)) (?v_61 (= x_72 x_80))) (let ((?v_66 (not ?v_61)) (?v_69 (= x_147 x_141)) (?v_57 (= x_76 x_68)) (?v_58 (= x_23 x_19)) (?v_62 (ite (<= x_74 x_72) x_74 x_72)) (?v_56 (ite (<= x_72 x_74) x_72 x_74)) (?v_49 (= x_89 x_81)) (?v_50 (= x_82 x_90)) (?v_51 (= x_91 x_83)) (?v_47 (= x_80 x_88))) (let ((?v_52 (not ?v_47)) (?v_55 (= x_153 x_147)) (?v_43 (= x_84 x_76)) (?v_44 (= x_27 x_23)) (?v_48 (ite (<= x_82 x_80) x_82 x_80)) (?v_42 (ite (<= x_80 x_82) x_80 x_82)) (?v_35 (= x_97 x_89)) (?v_36 (= x_90 x_98)) (?v_37 (= x_99 x_91)) (?v_33 (= x_88 x_96))) (let ((?v_38 (not ?v_33)) (?v_41 (= x_159 x_153)) (?v_29 (= x_92 x_84)) (?v_30 (= x_31 x_27)) (?v_34 (ite (<= x_90 x_88) x_90 x_88)) (?v_28 (ite (<= x_88 x_90) x_88 x_90)) (?v_21 (= x_105 x_97)) (?v_22 (= x_98 x_106)) (?v_23 (= x_107 x_99)) (?v_19 (= x_96 x_104))) (let ((?v_24 (not ?v_19)) (?v_27 (= x_165 x_159)) (?v_15 (= x_100 x_92)) (?v_16 (= x_35 x_31)) (?v_20 (ite (<= x_98 x_96) x_98 x_96)) (?v_14 (ite (<= x_96 x_98) x_96 x_98)) (?v_7 (= x_115 x_105)) (?v_8 (= x_106 x_116)) (?v_9 (= x_117 x_107)) (?v_5 (= x_104 x_114))) (let ((?v_10 (not ?v_5)) (?v_13 (= x_171 x_165)) (?v_1 (= x_108 x_100)) (?v_2 (= x_172 x_35)) (?v_6 (ite (<= x_106 x_104) x_106 x_104)) (?v_0 (ite (<= x_104 x_106) x_104 x_106)) (?v_126 (xor x_110 x_111)) (?v_3 (not x_100)) (?v_17 (not x_92)) (?v_31 (not x_84)) (?v_45 (not x_76)) (?v_59 (not x_68)) (?v_73 (not x_60)) (?v_87 (not x_52)) (?v_101 (not x_44)) (?v_115 (not x_36)) (?v_4 (= x_111 x_33)) (?v_12 (= x_35 x_172)) (?v_18 (= x_33 x_29)) (?v_26 (= x_31 x_35)) (?v_32 (= x_29 x_25)) (?v_40 (= x_27 x_31)) (?v_46 (= x_25 x_21)) (?v_54 (= x_23 x_27)) (?v_60 (= x_21 x_17)) (?v_68 (= x_19 x_23)) (?v_74 (= x_17 x_13)) (?v_82 (= x_15 x_19)) (?v_88 (= x_13 x_9)) (?v_96 (= x_11 x_15)) (?v_102 (= x_9 x_5)) (?v_110 (= x_7 x_11)) (?v_116 (= x_5 x_1)) (?v_124 (= x_3 x_7))) (let ((?v_11 (+ ?v_6 x_122)) (?v_25 (+ ?v_20 x_122)) (?v_39 (+ ?v_34 x_122)) (?v_53 (+ ?v_48 x_122)) (?v_67 (+ ?v_62 x_122)) (?v_81 (+ ?v_76 x_122)) (?v_95 (+ ?v_90 x_122)) (?v_109 (+ ?v_104 x_122)) (?v_123 (+ ?v_118 x_122))) (and (and (and (and (and (and (and (and (and (and (and (and (and (and (and (and (and (and (and (and (and (and (and (and (and (and (and (and (and (and (and (and (and (and (and (and (and (and (and (and (and (and (and (and (and (and (and (and (and (and (and (and (and (and (and (and (and (and (and (and (and (and (and (and (> x_120 0) (> x_121 0)) (>= x_122 0)) (< x_122 x_120)) (< x_122 x_121)) (>= x_127 0)) (< x_127 x_120)) (< x_127 x_121)) (or (= x_32 x_33) (= x_34 x_35))) (or (= x_28 x_29) (= x_30 x_31))) (or (= x_24 x_25) (= x_26 x_27))) (or (= x_20 x_21) (= x_22 x_23))) (or (= x_16 x_17) (= x_18 x_19))) (or (= x_12 x_13) (= x_14 x_15))) (or (= x_8 x_9) (= x_10 x_11))) (or (= x_4 x_5) (= x_6 x_7))) (or (= x_0 x_1) (= x_2 x_3))) (<= (+ (+ (+ (+ (+ (+ (+ (ite (xor x_108 x_109) 1 0) (ite (xor x_109 x_110) 1 0)) (ite ?v_126 1 0)) (ite (xor x_111 x_112) 1 0)) (ite (xor x_112 x_113) 1 0)) (ite (xor x_113 (not x_108)) 1 0)) (ite (and (= x_108 x_109) (< x_114 x_115)) 1 0)) (ite (and (= x_111 x_112) (< x_116 x_117)) 1 0)) 1)) (<= (+ (+ (+ (+ (+ (+ (+ (ite (xor x_100 x_101) 1 0) (ite (xor x_101 x_32) 1 0)) (ite (xor x_32 x_33) 1 0)) (ite (xor x_33 x_102) 1 0)) (ite (xor x_102 x_103) 1 0)) (ite (xor x_103 ?v_3) 1 0)) (ite (and (= x_100 x_101) (< x_104 x_105)) 1 0)) (ite (and (= x_33 x_102) (< x_106 x_107)) 1 0)) 1)) (<= (+ (+ (+ (+ (+ (+ (+ (ite (xor x_92 x_93) 1 0) (ite (xor x_93 x_28) 1 0)) (ite (xor x_28 x_29) 1 0)) (ite (xor x_29 x_94) 1 0)) (ite (xor x_94 x_95) 1 0)) (ite (xor x_95 ?v_17) 1 0)) (ite (and (= x_92 x_93) (< x_96 x_97)) 1 0)) (ite (and (= x_29 x_94) (< x_98 x_99)) 1 0)) 1)) (<= (+ (+ (+ (+ (+ (+ (+ (ite (xor x_84 x_85) 1 0) (ite (xor x_85 x_24) 1 0)) (ite (xor x_24 x_25) 1 0)) (ite (xor x_25 x_86) 1 0)) (ite (xor x_86 x_87) 1 0)) (ite (xor x_87 ?v_31) 1 0)) (ite (and (= x_84 x_85) (< x_88 x_89)) 1 0)) (ite (and (= x_25 x_86) (< x_90 x_91)) 1 0)) 1)) (<= (+ (+ (+ (+ (+ (+ (+ (ite (xor x_76 x_77) 1 0) (ite (xor x_77 x_20) 1 0)) (ite (xor x_20 x_21) 1 0)) (ite (xor x_21 x_78) 1 0)) (ite (xor x_78 x_79) 1 0)) (ite (xor x_79 ?v_45) 1 0)) (ite (and (= x_76 x_77) (< x_80 x_81)) 1 0)) (ite (and (= x_21 x_78) (< x_82 x_83)) 1 0)) 1)) (<= (+ (+ (+ (+ (+ (+ (+ (ite (xor x_68 x_69) 1 0) (ite (xor x_69 x_16) 1 0)) (ite (xor x_16 x_17) 1 0)) (ite (xor x_17 x_70) 1 0)) (ite (xor x_70 x_71) 1 0)) (ite (xor x_71 ?v_59) 1 0)) (ite (and (= x_68 x_69) (< x_72 x_73)) 1 0)) (ite (and (= x_17 x_70) (< x_74 x_75)) 1 0)) 1)) (<= (+ (+ (+ (+ (+ (+ (+ (ite (xor x_60 x_61) 1 0) (ite (xor x_61 x_12) 1 0)) (ite (xor x_12 x_13) 1 0)) (ite (xor x_13 x_62) 1 0)) (ite (xor x_62 x_63) 1 0)) (ite (xor x_63 ?v_73) 1 0)) (ite (and (= x_60 x_61) (< x_64 x_65)) 1 0)) (ite (and (= x_13 x_62) (< x_66 x_67)) 1 0)) 1)) (<= (+ (+ (+ (+ (+ (+ (+ (ite (xor x_52 x_53) 1 0) (ite (xor x_53 x_8) 1 0)) (ite (xor x_8 x_9) 1 0)) (ite (xor x_9 x_54) 1 0)) (ite (xor x_54 x_55) 1 0)) (ite (xor x_55 ?v_87) 1 0)) (ite (and (= x_52 x_53) (< x_56 x_57)) 1 0)) (ite (and (= x_9 x_54) (< x_58 x_59)) 1 0)) 1)) (<= (+ (+ (+ (+ (+ (+ (+ (ite (xor x_44 x_45) 1 0) (ite (xor x_45 x_4) 1 0)) (ite (xor x_4 x_5) 1 0)) (ite (xor x_5 x_46) 1 0)) (ite (xor x_46 x_47) 1 0)) (ite (xor x_47 ?v_101) 1 0)) (ite (and (= x_44 x_45) (< x_48 x_49)) 1 0)) (ite (and (= x_5 x_46) (< x_50 x_51)) 1 0)) 1)) (<= (+ (+ (+ (+ (+ (+ (+ (ite (xor x_36 x_37) 1 0) (ite (xor x_37 x_0) 1 0)) (ite (xor x_0 x_1) 1 0)) (ite (xor x_1 x_38) 1 0)) (ite (xor x_38 x_39) 1 0)) (ite (xor x_39 ?v_115) 1 0)) (ite (and (= x_36 x_37) (< x_40 x_41)) 1 0)) (ite (and (= x_1 x_38) (< x_42 x_43)) 1 0)) 1)) (or (and (and (and (and (and (and (and (and (and (= x_173 0) (= x_110 x_101)) (= ?v_0 x_104)) (<= (+ ?v_0 x_120) x_114)) (or ?v_4 (= x_111 x_32))) (= x_112 x_102)) (= x_113 x_103)) (= x_116 x_106)) ?v_1) ?v_2) (and (and (and (and (and (and (and (and (and (= x_173 1) (= x_113 x_102)) (= ?v_0 x_106)) (<= (+ ?v_0 x_121) x_116)) (or (and (and (= x_174 0) ?v_1) ?v_2) (and (and (= x_174 1) (= x_100 x_103)) (= x_108 ?v_3)))) (= x_109 x_101)) (= x_110 x_32)) (= x_175 x_34)) (= x_114 x_104)) ?v_4))) (or (or (and (and (and (= x_176 0) ?v_10) (or (not (<= x_105 ?v_6)) (= x_109 x_100))) ?v_7) (and (and (and (= x_176 1) ?v_5) (xor x_100 x_108)) (= x_115 ?v_11))) (and (and (and (= x_176 2) ?v_5) (= x_100 x_108)) ?v_7))) (or (or (and (and (and (= x_177 0) (not ?v_8)) (or (not (<= x_107 ?v_0)) (= x_112 x_33))) ?v_9) (and (and (and (= x_177 1) ?v_8) (xor x_33 x_111)) (= x_117 (+ ?v_0 x_127)))) (and (and (and (= x_177 2) ?v_8) (= x_33 x_111)) ?v_9))) (or (or (and (and (and (= x_178 0) ?v_10) (or (not (<= x_165 ?v_6)) (= x_175 x_35))) ?v_13) (and (and (and (= x_178 1) ?v_5) (not ?v_12)) (= x_171 ?v_11))) (and (and (and (= x_178 2) ?v_5) ?v_12) ?v_13))) (or (and (and (and (and (and (and (and (and (and (= x_166 0) (= x_32 x_93)) (= ?v_14 x_96)) (<= (+ ?v_14 x_120) x_104)) (or ?v_18 (= x_33 x_28))) (= x_102 x_94)) (= x_103 x_95)) (= x_106 x_98)) ?v_15) ?v_16) (and (and (and (and (and (and (and (and (and (= x_166 1) (= x_103 x_94)) (= ?v_14 x_98)) (<= (+ ?v_14 x_121) x_106)) (or (and (and (= x_167 0) ?v_15) ?v_16) (and (and (= x_167 1) (= x_92 x_95)) (= x_100 ?v_17)))) (= x_101 x_93)) (= x_32 x_28)) (= x_34 x_30)) (= x_104 x_96)) ?v_18))) (or (or (and (and (and (= x_168 0) ?v_24) (or (not (<= x_97 ?v_20)) (= x_101 x_92))) ?v_21) (and (and (and (= x_168 1) ?v_19) (xor x_92 x_100)) (= x_105 ?v_25))) (and (and (and (= x_168 2) ?v_19) (= x_92 x_100)) ?v_21))) (or (or (and (and (and (= x_169 0) (not ?v_22)) (or (not (<= x_99 ?v_14)) (= x_102 x_29))) ?v_23) (and (and (and (= x_169 1) ?v_22) (xor x_29 x_33)) (= x_107 (+ ?v_14 x_127)))) (and (and (and (= x_169 2) ?v_22) (= x_29 x_33)) ?v_23))) (or (or (and (and (and (= x_170 0) ?v_24) (or (not (<= x_159 ?v_20)) (= x_34 x_31))) ?v_27) (and (and (and (= x_170 1) ?v_19) (not ?v_26)) (= x_165 ?v_25))) (and (and (and (= x_170 2) ?v_19) ?v_26) ?v_27))) (or (and (and (and (and (and (and (and (and (and (= x_160 0) (= x_28 x_85)) (= ?v_28 x_88)) (<= (+ ?v_28 x_120) x_96)) (or ?v_32 (= x_29 x_24))) (= x_94 x_86)) (= x_95 x_87)) (= x_98 x_90)) ?v_29) ?v_30) (and (and (and (and (and (and (and (and (and (= x_160 1) (= x_95 x_86)) (= ?v_28 x_90)) (<= (+ ?v_28 x_121) x_98)) (or (and (and (= x_161 0) ?v_29) ?v_30) (and (and (= x_161 1) (= x_84 x_87)) (= x_92 ?v_31)))) (= x_93 x_85)) (= x_28 x_24)) (= x_30 x_26)) (= x_96 x_88)) ?v_32))) (or (or (and (and (and (= x_162 0) ?v_38) (or (not (<= x_89 ?v_34)) (= x_93 x_84))) ?v_35) (and (and (and (= x_162 1) ?v_33) (xor x_84 x_92)) (= x_97 ?v_39))) (and (and (and (= x_162 2) ?v_33) (= x_84 x_92)) ?v_35))) (or (or (and (and (and (= x_163 0) (not ?v_36)) (or (not (<= x_91 ?v_28)) (= x_94 x_25))) ?v_37) (and (and (and (= x_163 1) ?v_36) (xor x_25 x_29)) (= x_99 (+ ?v_28 x_127)))) (and (and (and (= x_163 2) ?v_36) (= x_25 x_29)) ?v_37))) (or (or (and (and (and (= x_164 0) ?v_38) (or (not (<= x_153 ?v_34)) (= x_30 x_27))) ?v_41) (and (and (and (= x_164 1) ?v_33) (not ?v_40)) (= x_159 ?v_39))) (and (and (and (= x_164 2) ?v_33) ?v_40) ?v_41))) (or (and (and (and (and (and (and (and (and (and (= x_154 0) (= x_24 x_77)) (= ?v_42 x_80)) (<= (+ ?v_42 x_120) x_88)) (or ?v_46 (= x_25 x_20))) (= x_86 x_78)) (= x_87 x_79)) (= x_90 x_82)) ?v_43) ?v_44) (and (and (and (and (and (and (and (and (and (= x_154 1) (= x_87 x_78)) (= ?v_42 x_82)) (<= (+ ?v_42 x_121) x_90)) (or (and (and (= x_155 0) ?v_43) ?v_44) (and (and (= x_155 1) (= x_76 x_79)) (= x_84 ?v_45)))) (= x_85 x_77)) (= x_24 x_20)) (= x_26 x_22)) (= x_88 x_80)) ?v_46))) (or (or (and (and (and (= x_156 0) ?v_52) (or (not (<= x_81 ?v_48)) (= x_85 x_76))) ?v_49) (and (and (and (= x_156 1) ?v_47) (xor x_76 x_84)) (= x_89 ?v_53))) (and (and (and (= x_156 2) ?v_47) (= x_76 x_84)) ?v_49))) (or (or (and (and (and (= x_157 0) (not ?v_50)) (or (not (<= x_83 ?v_42)) (= x_86 x_21))) ?v_51) (and (and (and (= x_157 1) ?v_50) (xor x_21 x_25)) (= x_91 (+ ?v_42 x_127)))) (and (and (and (= x_157 2) ?v_50) (= x_21 x_25)) ?v_51))) (or (or (and (and (and (= x_158 0) ?v_52) (or (not (<= x_147 ?v_48)) (= x_26 x_23))) ?v_55) (and (and (and (= x_158 1) ?v_47) (not ?v_54)) (= x_153 ?v_53))) (and (and (and (= x_158 2) ?v_47) ?v_54) ?v_55))) (or (and (and (and (and (and (and (and (and (and (= x_148 0) (= x_20 x_69)) (= ?v_56 x_72)) (<= (+ ?v_56 x_120) x_80)) (or ?v_60 (= x_21 x_16))) (= x_78 x_70)) (= x_79 x_71)) (= x_82 x_74)) ?v_57) ?v_58) (and (and (and (and (and (and (and (and (and (= x_148 1) (= x_79 x_70)) (= ?v_56 x_74)) (<= (+ ?v_56 x_121) x_82)) (or (and (and (= x_149 0) ?v_57) ?v_58) (and (and (= x_149 1) (= x_68 x_71)) (= x_76 ?v_59)))) (= x_77 x_69)) (= x_20 x_16)) (= x_22 x_18)) (= x_80 x_72)) ?v_60))) (or (or (and (and (and (= x_150 0) ?v_66) (or (not (<= x_73 ?v_62)) (= x_77 x_68))) ?v_63) (and (and (and (= x_150 1) ?v_61) (xor x_68 x_76)) (= x_81 ?v_67))) (and (and (and (= x_150 2) ?v_61) (= x_68 x_76)) ?v_63))) (or (or (and (and (and (= x_151 0) (not ?v_64)) (or (not (<= x_75 ?v_56)) (= x_78 x_17))) ?v_65) (and (and (and (= x_151 1) ?v_64) (xor x_17 x_21)) (= x_83 (+ ?v_56 x_127)))) (and (and (and (= x_151 2) ?v_64) (= x_17 x_21)) ?v_65))) (or (or (and (and (and (= x_152 0) ?v_66) (or (not (<= x_141 ?v_62)) (= x_22 x_19))) ?v_69) (and (and (and (= x_152 1) ?v_61) (not ?v_68)) (= x_147 ?v_67))) (and (and (and (= x_152 2) ?v_61) ?v_68) ?v_69))) (or (and (and (and (and (and (and (and (and (and (= x_142 0) (= x_16 x_61)) (= ?v_70 x_64)) (<= (+ ?v_70 x_120) x_72)) (or ?v_74 (= x_17 x_12))) (= x_70 x_62)) (= x_71 x_63)) (= x_74 x_66)) ?v_71) ?v_72) (and (and (and (and (and (and (and (and (and (= x_142 1) (= x_71 x_62)) (= ?v_70 x_66)) (<= (+ ?v_70 x_121) x_74)) (or (and (and (= x_143 0) ?v_71) ?v_72) (and (and (= x_143 1) (= x_60 x_63)) (= x_68 ?v_73)))) (= x_69 x_61)) (= x_16 x_12)) (= x_18 x_14)) (= x_72 x_64)) ?v_74))) (or (or (and (and (and (= x_144 0) ?v_80) (or (not (<= x_65 ?v_76)) (= x_69 x_60))) ?v_77) (and (and (and (= x_144 1) ?v_75) (xor x_60 x_68)) (= x_73 ?v_81))) (and (and (and (= x_144 2) ?v_75) (= x_60 x_68)) ?v_77))) (or (or (and (and (and (= x_145 0) (not ?v_78)) (or (not (<= x_67 ?v_70)) (= x_70 x_13))) ?v_79) (and (and (and (= x_145 1) ?v_78) (xor x_13 x_17)) (= x_75 (+ ?v_70 x_127)))) (and (and (and (= x_145 2) ?v_78) (= x_13 x_17)) ?v_79))) (or (or (and (and (and (= x_146 0) ?v_80) (or (not (<= x_135 ?v_76)) (= x_18 x_15))) ?v_83) (and (and (and (= x_146 1) ?v_75) (not ?v_82)) (= x_141 ?v_81))) (and (and (and (= x_146 2) ?v_75) ?v_82) ?v_83))) (or (and (and (and (and (and (and (and (and (and (= x_136 0) (= x_12 x_53)) (= ?v_84 x_56)) (<= (+ ?v_84 x_120) x_64)) (or ?v_88 (= x_13 x_8))) (= x_62 x_54)) (= x_63 x_55)) (= x_66 x_58)) ?v_85) ?v_86) (and (and (and (and (and (and (and (and (and (= x_136 1) (= x_63 x_54)) (= ?v_84 x_58)) (<= (+ ?v_84 x_121) x_66)) (or (and (and (= x_137 0) ?v_85) ?v_86) (and (and (= x_137 1) (= x_52 x_55)) (= x_60 ?v_87)))) (= x_61 x_53)) (= x_12 x_8)) (= x_14 x_10)) (= x_64 x_56)) ?v_88))) (or (or (and (and (and (= x_138 0) ?v_94) (or (not (<= x_57 ?v_90)) (= x_61 x_52))) ?v_91) (and (and (and (= x_138 1) ?v_89) (xor x_52 x_60)) (= x_65 ?v_95))) (and (and (and (= x_138 2) ?v_89) (= x_52 x_60)) ?v_91))) (or (or (and (and (and (= x_139 0) (not ?v_92)) (or (not (<= x_59 ?v_84)) (= x_62 x_9))) ?v_93) (and (and (and (= x_139 1) ?v_92) (xor x_9 x_13)) (= x_67 (+ ?v_84 x_127)))) (and (and (and (= x_139 2) ?v_92) (= x_9 x_13)) ?v_93))) (or (or (and (and (and (= x_140 0) ?v_94) (or (not (<= x_129 ?v_90)) (= x_14 x_11))) ?v_97) (and (and (and (= x_140 1) ?v_89) (not ?v_96)) (= x_135 ?v_95))) (and (and (and (= x_140 2) ?v_89) ?v_96) ?v_97))) (or (and (and (and (and (and (and (and (and (and (= x_130 0) (= x_8 x_45)) (= ?v_98 x_48)) (<= (+ ?v_98 x_120) x_56)) (or ?v_102 (= x_9 x_4))) (= x_54 x_46)) (= x_55 x_47)) (= x_58 x_50)) ?v_99) ?v_100) (and (and (and (and (and (and (and (and (and (= x_130 1) (= x_55 x_46)) (= ?v_98 x_50)) (<= (+ ?v_98 x_121) x_58)) (or (and (and (= x_131 0) ?v_99) ?v_100) (and (and (= x_131 1) (= x_44 x_47)) (= x_52 ?v_101)))) (= x_53 x_45)) (= x_8 x_4)) (= x_10 x_6)) (= x_56 x_48)) ?v_102))) (or (or (and (and (and (= x_132 0) ?v_108) (or (not (<= x_49 ?v_104)) (= x_53 x_44))) ?v_105) (and (and (and (= x_132 1) ?v_103) (xor x_44 x_52)) (= x_57 ?v_109))) (and (and (and (= x_132 2) ?v_103) (= x_44 x_52)) ?v_105))) (or (or (and (and (and (= x_133 0) (not ?v_106)) (or (not (<= x_51 ?v_98)) (= x_54 x_5))) ?v_107) (and (and (and (= x_133 1) ?v_106) (xor x_5 x_9)) (= x_59 (+ ?v_98 x_127)))) (and (and (and (= x_133 2) ?v_106) (= x_5 x_9)) ?v_107))) (or (or (and (and (and (= x_134 0) ?v_108) (or (not (<= x_118 ?v_104)) (= x_10 x_7))) ?v_111) (and (and (and (= x_134 1) ?v_103) (not ?v_110)) (= x_129 ?v_109))) (and (and (and (= x_134 2) ?v_103) ?v_110) ?v_111))) (or (and (and (and (and (and (and (and (and (and (= x_123 0) (= x_4 x_37)) (= ?v_112 x_40)) (<= (+ ?v_112 x_120) x_48)) (or ?v_116 (= x_5 x_0))) (= x_46 x_38)) (= x_47 x_39)) (= x_50 x_42)) ?v_113) ?v_114) (and (and (and (and (and (and (and (and (and (= x_123 1) (= x_47 x_38)) (= ?v_112 x_42)) (<= (+ ?v_112 x_121) x_50)) (or (and (and (= x_124 0) ?v_113) ?v_114) (and (and (= x_124 1) (= x_36 x_39)) (= x_44 ?v_115)))) (= x_45 x_37)) (= x_4 x_0)) (= x_6 x_2)) (= x_48 x_40)) ?v_116))) (or (or (and (and (and (= x_125 0) ?v_122) (or (not (<= x_41 ?v_118)) (= x_45 x_36))) ?v_119) (and (and (and (= x_125 1) ?v_117) (xor x_36 x_44)) (= x_49 ?v_123))) (and (and (and (= x_125 2) ?v_117) (= x_36 x_44)) ?v_119))) (or (or (and (and (and (= x_126 0) (not ?v_120)) (or (not (<= x_43 ?v_112)) (= x_46 x_1))) ?v_121) (and (and (and (= x_126 1) ?v_120) (xor x_1 x_5)) (= x_51 (+ ?v_112 x_127)))) (and (and (and (= x_126 2) ?v_120) (= x_1 x_5)) ?v_121))) (or (or (and (and (and (= x_128 0) ?v_122) (or (not (<= x_119 ?v_118)) (= x_6 x_3))) ?v_125) (and (and (and (= x_128 1) ?v_117) (not ?v_124)) (= x_118 ?v_123))) (and (and (and (= x_128 2) ?v_117) ?v_124) ?v_125))) ?v_126) (not (= x_175 x_172)))))))))))))))
(check-sat)
(exit)
